n_potions = 66;
alchemy = [1, 1, 5, 3, 3, 5, 1, 5, 4, 3, 2, 1, 3, 2, 4, 5, 1, 3, 1, 1, 5, 2, 5, 2, 5, 2, 5, 2, 4, 4, 4, 5, 4, 1, 5, 4, 1, 4, 5, 1, 5, 4, 5, 5, 2, 5, 2, 3, 1, 3, 4, 2, 5, 5, 4, 1, 1, 1, 4, 5, 4, 1, 5, 5, 2, 5];
n_days = 12;
min_potions = 5;
max_potions = 7;
min_alchemists = 5;
max_alchemists = 35;
prereqs = [|7,1
|8,6
|11,5
|11,6
|12,7
|13,8
|17,11
|18,10
|18,11
|19,8
|19,11
|20,9
|23,17
|23,18
|24,13
|24,19
|26,13
|26,23
|30,9
|32,9
|33,27
|34,17
|35,17
|37,30
|37,35
|39,35
|41,9
|41,17
|41,18
|43,20
|44,16
|45,38
|46,37
|47,42
|48,34
|48,35
|49,30
|49,32
|51,33
|53,47
|54,50
|55,38
|56,51
|57,39
|57,34
|59,55
|61,48
|61,55
|62,31
|65,59
|];
